db/data/1840994142794219018098230973013524824.z3.out
sat
-------------------
309.425362338
